(set-logic QF_BV)
(set-info :source |Converted by Dunbo Cai. dunbocai@gmail.com|)
(set-info :smt-lib-version 2.0)
(set-info :category "convex body with variables with domain [-15, 15]")
(declare-fun x_0 () (_ BitVec 32))
(declare-fun x_1 () (_ BitVec 32))
(declare-fun x_2 () (_ BitVec 32))
(declare-fun x_3 () (_ BitVec 32))
(declare-fun x_4 () (_ BitVec 32))
(assert (bvsge x_0 (bvsub (_ bv0 32) (_ bv15 32))) )
(assert (bvsle x_0 (_ bv15 32)) )
(assert (bvsge x_1 (bvsub (_ bv0 32) (_ bv15 32))) )
(assert (bvsle x_1 (_ bv15 32)) )
(assert (bvsge x_2 (bvsub (_ bv0 32) (_ bv15 32))) )
(assert (bvsle x_2 (_ bv15 32)) )
(assert (bvsge x_3 (bvsub (_ bv0 32) (_ bv15 32))) )
(assert (bvsle x_3 (_ bv15 32)) )
(assert (bvsge x_4 (bvsub (_ bv0 32) (_ bv15 32))) )
(assert (bvsle x_4 (_ bv15 32)) )
(assert (bvsle (bvadd (bvmul (bvsub (_ bv0 32) (bvsdiv (_ bv15 32) (_ bv1 32) )) x_1 )(bvmul (bvsub (_ bv0 32) (bvsdiv (_ bv36 32) (_ bv1 32) )) x_2 )) (bvmul (bvsdiv (_ bv548 32) (_ bv1 32) ) (_ bv1 32) ) )) 
(assert (bvsle (bvadd (bvmul (bvsub (_ bv0 32) (bvsdiv (_ bv4 32) (_ bv1 32) )) x_0 )(bvmul (bvsdiv (_ bv45 32) (_ bv1 32) ) x_1 )) (bvmul (bvsdiv (_ bv228 32) (_ bv1 32) ) (_ bv1 32) ) )) 
(assert (bvsle (bvadd (bvmul (bvsdiv (_ bv28 32) (_ bv1 32) ) x_0 )(bvmul (bvsdiv (_ bv6 32) (_ bv1 32) ) x_2 )(bvmul (bvsdiv (_ bv63 32) (_ bv1 32) ) x_3 )(bvmul (bvsdiv (_ bv56 32) (_ bv1 32) ) x_4 )) (bvmul (bvsub (_ bv0 32) (bvsdiv (_ bv691 32) (_ bv1 32) )) (_ bv1 32) ) )) 
(assert (bvsle (bvadd (bvmul (bvsdiv (_ bv15 32) (_ bv1 32) ) x_0 )(bvmul (bvsdiv (_ bv9 32) (_ bv1 32) ) x_1 )(bvmul (bvsub (_ bv0 32) (bvsdiv (_ bv10 32) (_ bv1 32) )) x_2 )(bvmul (bvsdiv (_ bv27 32) (_ bv1 32) ) x_3 )) (bvmul (bvsdiv (_ bv239 32) (_ bv1 32) ) (_ bv1 32) ) )) 
(assert (bvsle (bvadd (bvmul (bvsub (_ bv0 32) (bvsdiv (_ bv315 32) (_ bv1 32) )) x_0 )(bvmul (bvsub (_ bv0 32) (bvsdiv (_ bv251 32) (_ bv1 32) )) x_1 )(bvmul (bvsub (_ bv0 32) (bvsdiv (_ bv270 32) (_ bv1 32) )) x_2 )(bvmul (bvsdiv (_ bv180 32) (_ bv1 32) ) x_3 )(bvmul (bvsub (_ bv0 32) (bvsdiv (_ bv160 32) (_ bv1 32) )) x_4 )) (bvmul (bvsdiv (_ bv5130 32) (_ bv1 32) ) (_ bv1 32) ) )) 
(assert (bvsle (bvadd (bvmul (bvsub (_ bv0 32) (bvsdiv (_ bv56 32) (_ bv1 32) )) x_0 )(bvmul (bvsub (_ bv0 32) (bvsdiv (_ bv20 32) (_ bv1 32) )) x_2 )(bvmul (bvsdiv (_ bv35 32) (_ bv1 32) ) x_3 )(bvmul (bvsub (_ bv0 32) (bvsdiv (_ bv196 32) (_ bv1 32) )) x_4 )) (bvmul (bvsdiv (_ bv2092 32) (_ bv1 32) ) (_ bv1 32) ) )) 
(assert (bvsle (bvadd (bvmul (bvsub (_ bv0 32) (bvsdiv (_ bv108 32) (_ bv1 32) )) x_0 )(bvmul (bvsub (_ bv0 32) (bvsdiv (_ bv28 32) (_ bv1 32) )) x_2 )(bvmul (bvsub (_ bv0 32) (bvsdiv (_ bv180 32) (_ bv1 32) )) x_3 )(bvmul (bvsub (_ bv0 32) (bvsdiv (_ bv63 32) (_ bv1 32) )) x_4 )) (bvmul (bvsdiv (_ bv4715 32) (_ bv1 32) ) (_ bv1 32) ) )) 
(assert (bvsle (bvadd (bvmul (bvsdiv (_ bv16 32) (_ bv1 32) ) x_0 )(bvmul (bvsub (_ bv0 32) (bvsdiv (_ bv18 32) (_ bv1 32) )) x_1 )(bvmul (bvsdiv (_ bv21 32) (_ bv1 32) ) x_2 )(bvmul (bvsdiv (_ bv12 32) (_ bv1 32) ) x_3 )(bvmul (bvsub (_ bv0 32) (bvsdiv (_ bv48 32) (_ bv1 32) )) x_4 )) (bvmul (bvsdiv (_ bv472 32) (_ bv1 32) ) (_ bv1 32) ) )) 
(assert (bvsle (bvadd (bvmul (bvsdiv (_ bv9 32) (_ bv1 32) ) x_0 )(bvmul (bvsub (_ bv0 32) (bvsdiv (_ bv105 32) (_ bv1 32) )) x_1 )(bvmul (bvsub (_ bv0 32) (bvsdiv (_ bv252 32) (_ bv1 32) )) x_2 )(bvmul (bvsdiv (_ bv70 32) (_ bv1 32) ) x_4 )) (bvmul (bvsdiv (_ bv1683 32) (_ bv1 32) ) (_ bv1 32) ) )) 
(assert (bvsle (bvadd (bvmul (bvsub (_ bv0 32) (bvsdiv (_ bv7 32) (_ bv1 32) )) x_0 )(bvmul (bvsub (_ bv0 32) (bvsdiv (_ bv25 32) (_ bv1 32) )) x_1 )) (bvmul (bvsdiv (_ bv144 32) (_ bv1 32) ) (_ bv1 32) ) )) 
(assert (bvsle (bvadd (bvmul (bvsub (_ bv0 32) (bvsdiv (_ bv49 32) (_ bv1 32) )) x_3 )(bvmul (bvsdiv (_ bv20 32) (_ bv1 32) ) x_4 )) (bvmul (bvsdiv (_ bv324 32) (_ bv1 32) ) (_ bv1 32) ) )) 

(check-sat)
(exit)